5  60
7  47
8  48
10  55
12  59
15  66
16  69
17  68
20  80
22  91
25  97
27  100
30  119
32  112
35  122
37  171
40  175
35  173
32  187
32  172
35  171
37  187
40  202
13  125
13  94
5  78
5  100
7  80
8  86
10  93
12  92
13  94
15  107
16  122
17  108
17  112
5  78
7  78
7  202
7  479
7  124
